NAME: ACTUAL_TOURS/amz2022
TYPE: TOUR
COMMENT: RouteID_d6f19e6e-4710-4c37-8c7a-b04974f6edc2
DIMENSION: 148
TOUR_SECTION
36
78
129
49
111
122
82
35
116
65
20
118
121
15
133
146
21
130
103
135
76
138
84
68
66
97
63
59
80
87
12
37
60
141
53
25
67
79
2
136
55
132
137
61
34
48
91
96
124
90
77
131
4
22
93
72
42
57
11
45
23
119
26
19
117
38
98
3
7
39
44
18
41
5
32
102
147
17
139
9
62
56
14
100
86
143
144
104
69
50
145
31
83
1
33
126
105
43
142
24
127
51
108
27
148
94
112
110
107
81
128
40
101
6
74
114
8
88
28
13
16
109
85
46
134
73
54
70
71
75
29
120
115
89
106
47
30
140
64
125
10
92
123
99
58
113
95
52
-1
EOF
